
Gurobi 7.5.2 (linux64) logging started Sat Jul  7 16:01:50 2018

Changed value of parameter LogFile to result/ilp/simNo_3-n_100-m_40-s_4-minVAF_0.05-cov_10000-k_2-fn_0.25-fp_0.0001-na_0.15.ILP.gurobiSolverLog
   Prev: gurobi.log  Default: 
Changed value of parameter TimeLimit to 86400.0
   Prev: 1e+100  Min: 0.0  Max: 1e+100  Default: 1e+100
Optimize a model with 639293 rows, 10765 columns and 1940420 nonzeros
Variable types: 0 continuous, 10765 integer (10765 binary)
Coefficient statistics:
  Matrix range     [2e-04, 4e+00]
  Objective range  [9e-01, 3e+01]
  Bounds range     [1e+00, 1e+00]
  RHS range        [2e-01, 2e+00]
Found heuristic solution: objective -11638.71326
Presolve removed 130593 rows and 1022 columns (presolve time = 5s) ...
Presolve removed 131773 rows and 1022 columns (presolve time = 10s) ...
Presolve removed 132350 rows and 1022 columns (presolve time = 17s) ...
Presolve removed 190050 rows and 1599 columns (presolve time = 20s) ...
Presolve removed 190050 rows and 1599 columns
Presolve time: 24.45s
Presolved: 449243 rows, 9166 columns, 1349854 nonzeros
Variable types: 0 continuous, 9166 integer (9166 binary)
Presolved: 9166 rows, 458409 columns, 1359020 nonzeros

Presolve removed 9166 rows and 458409 columns

Root simplex log...

Iteration    Objective       Primal Inf.    Dual Inf.      Time
       0    5.0807472e+01   0.000000e+00   6.077600e+04     28s
   17073   -1.6874534e+02   0.000000e+00   7.829086e+04     30s
   36794   -2.3869615e+02   0.000000e+00   0.000000e+00     35s
   36794   -2.3869615e+02   0.000000e+00   0.000000e+00     36s

Root relaxation: objective -2.386961e+02, 36794 iterations, 9.74 seconds
Total elapsed time = 65.67s
Total elapsed time = 96.93s
Total elapsed time = 110.15s

    Nodes    |    Current Node    |     Objective Bounds      |     Work
 Expl Unexpl |  Obj  Depth IntInf | Incumbent    BestBd   Gap | It/Node Time

     0     0 -238.69615    0 2048 -11638.713 -238.69615  97.9%     -  113s
H    0     0                    -456.9071788 -238.69615  47.8%     -  116s
H    0     0                    -392.3549969 -238.69615  39.2%     -  118s
     0     0 -242.51022    0 2057 -392.35500 -242.51022  38.2%     -  139s
H    0     0                    -353.9368963 -242.51022  31.5%     -  152s
     0     0 -242.51022    0 2053 -353.93690 -242.51022  31.5%     -  153s
     0     0 -244.17201    0 2058 -353.93690 -244.17201  31.0%     -  171s
     0     0 -244.32147    0 2038 -353.93690 -244.32147  31.0%     -  178s
     0     0 -244.36151    0 2038 -353.93690 -244.36151  31.0%     -  181s
     0     0 -245.24166    0 2043 -353.93690 -245.24166  30.7%     -  201s
     0     0 -245.32515    0 2134 -353.93690 -245.32515  30.7%     -  212s
     0     0 -245.72006    0 2059 -353.93690 -245.72006  30.6%     -  224s
     0     0 -245.77878    0 2035 -353.93690 -245.77878  30.6%     -  237s
     0     0 -245.77878    0 2043 -353.93690 -245.77878  30.6%     -  239s
     0     0 -246.85277    0 2051 -353.93690 -246.85277  30.3%     -  251s
H    0     0                    -342.0821082 -246.85277  27.8%     -  265s
     0     0 -246.97021    0 2053 -342.08211 -246.97021  27.8%     -  266s
     0     0 -247.87413    0 2057 -342.08211 -247.87413  27.5%     -  286s
     0     0 -248.15067    0 2032 -342.08211 -248.15067  27.5%     -  291s
     0     0 -248.20461    0 2106 -342.08211 -248.20461  27.4%     -  295s
     0     0 -248.20461    0 2107 -342.08211 -248.20461  27.4%     -  298s
     0     0 -249.13119    0 2116 -342.08211 -249.13119  27.2%     -  312s
     0     0 -249.36607    0 2110 -342.08211 -249.36607  27.1%     -  318s
     0     0 -249.36607    0 2119 -342.08211 -249.36607  27.1%     -  320s
     0     0 -250.21843    0 2136 -342.08211 -250.21843  26.9%     -  333s
H    0     0                    -339.2635882 -250.21843  26.2%     -  360s
     0     0 -250.28066    0 2136 -339.26359 -250.28066  26.2%     -  363s
     0     0 -250.28734    0 2138 -339.26359 -250.28734  26.2%     -  365s
     0     0 -250.31083    0 2141 -339.26359 -250.31083  26.2%     -  368s
     0     0 -250.31083    0 2145 -339.26359 -250.31083  26.2%     -  370s
     0     0 -251.00199    0 2137 -339.26359 -251.00199  26.0%     -  384s
     0     0 -251.36525    0 1970 -339.26359 -251.36525  25.9%     -  391s
     0     0 -251.36525    0 1953 -339.26359 -251.36525  25.9%     -  393s
     0     0 -251.43489    0 2038 -339.26359 -251.43489  25.9%     -  405s
     0     0 -251.46972    0 2026 -339.26359 -251.46972  25.9%     -  410s
     0     0 -251.46972    0 2029 -339.26359 -251.46972  25.9%     -  413s
     0     0 -251.71554    0 2199 -339.26359 -251.71554  25.8%     -  423s
     0     0 -251.81595    0 2152 -339.26359 -251.81595  25.8%     -  428s
     0     0 -251.86340    0 2151 -339.26359 -251.86340  25.8%     -  430s
     0     0 -251.86340    0 2151 -339.26359 -251.86340  25.8%     -  432s
     0     0 -252.19088    0 1963 -339.26359 -252.19088  25.7%     -  444s
     0     0 -252.35261    0 2196 -339.26359 -252.35261  25.6%     -  450s
     0     0 -252.36546    0 2138 -339.26359 -252.36546  25.6%     -  452s
     0     0 -252.40059    0 2102 -339.26359 -252.40059  25.6%     -  455s
     0     0 -252.40059    0 2102 -339.26359 -252.40059  25.6%     -  457s
     0     0 -252.66846    0 2055 -339.26359 -252.66846  25.5%     -  468s
     0     0 -252.70413    0 2051 -339.26359 -252.70413  25.5%     -  472s
     0     0 -252.70537    0 2058 -339.26359 -252.70537  25.5%     -  475s
     0     0 -253.22615    0 2143 -339.26359 -253.22615  25.4%     -  489s
     0     0 -253.41801    0 2163 -339.26359 -253.41801  25.3%     -  495s
     0     0 -253.43599    0 2170 -339.26359 -253.43599  25.3%     -  499s
     0     0 -253.43599    0 2172 -339.26359 -253.43599  25.3%     -  502s
     0     0 -254.29254    0 2218 -339.26359 -254.29254  25.0%     -  545s
     0     0 -254.43719    0 2173 -339.26359 -254.43719  25.0%     -  551s
     0     0 -254.48746    0 2228 -339.26359 -254.48746  25.0%     -  554s
     0     0 -254.50638    0 2229 -339.26359 -254.50638  25.0%     -  556s
     0     0 -254.51241    0 2234 -339.26359 -254.51241  25.0%     -  559s
     0     0 -254.51241    0 2237 -339.26359 -254.51241  25.0%     -  560s
     0     0 -255.24471    0 2211 -339.26359 -255.24471  24.8%     -  571s
     0     0 -255.41198    0 2150 -339.26359 -255.41198  24.7%     -  576s
     0     0 -255.41198    0 2154 -339.26359 -255.41198  24.7%     -  579s
     0     0 -255.96568    0 2218 -339.26359 -255.96568  24.6%     -  601s
     0     0 -256.07665    0 2015 -339.26359 -256.07665  24.5%     -  608s
     0     0 -256.08065    0 2134 -339.26359 -256.08065  24.5%     -  614s
     0     0 -256.08299    0 2131 -339.26359 -256.08299  24.5%     -  617s
     0     0 -256.08335    0 2137 -339.26359 -256.08335  24.5%     -  619s
     0     0 -256.43289    0 2075 -339.26359 -256.43289  24.4%     -  636s
     0     0 -256.44507    0 2116 -339.26359 -256.44507  24.4%     -  644s
     0     0 -256.45444    0 2131 -339.26359 -256.45444  24.4%     -  647s
     0     0 -256.46670    0 2131 -339.26359 -256.46670  24.4%     -  650s
     0     0 -256.48195    0 2135 -339.26359 -256.48195  24.4%     -  654s
     0     0 -256.48195    0 2136 -339.26359 -256.48195  24.4%     -  656s
     0     0 -256.97200    0 2137 -339.26359 -256.97200  24.3%     -  682s
H    0     0                    -329.8685213 -256.97200  22.1%     -  699s
     0     0 -257.04279    0 2154 -329.86852 -257.04279  22.1%     -  706s
     0     0 -257.05286    0 2164 -329.86852 -257.05286  22.1%     -  710s
     0     0 -257.05631    0 2164 -329.86852 -257.05631  22.1%     -  713s
     0     0 -257.05795    0 2161 -329.86852 -257.05795  22.1%     -  715s
     0     0 -257.62906    0 2162 -329.86852 -257.62906  21.9%     -  737s
     0     0 -257.77830    0 2175 -329.86852 -257.77830  21.9%     -  745s
     0     0 -257.82718    0 2173 -329.86852 -257.82718  21.8%     -  750s
     0     0 -257.82886    0 2181 -329.86852 -257.82886  21.8%     -  753s
     0     0 -258.39752    0 2137 -329.86852 -258.39752  21.7%     -  775s
     0     0 -258.43168    0 2146 -329.86852 -258.43168  21.7%     -  783s
     0     0 -258.43727    0 2135 -329.86852 -258.43727  21.7%     -  788s
     0     0 -258.43863    0 2140 -329.86852 -258.43863  21.7%     -  791s
     0     0 -258.87817    0 2152 -329.86852 -258.87817  21.5%     -  806s
     0     0 -258.88350    0 2156 -329.86852 -258.88350  21.5%     -  811s
     0     0 -258.88350    0 2159 -329.86852 -258.88350  21.5%     -  814s
     0     0 -259.43189    0 2141 -329.86852 -259.43189  21.4%     -  866s
     0     0 -259.63224    0 2141 -329.86852 -259.63224  21.3%     -  883s
     0     0 -259.63224    0 2136 -329.86852 -259.63224  21.3%     -  892s
     0     0 -259.85398    0 2143 -329.86852 -259.85398  21.2%     -  925s
     0     0 -259.90969    0 2239 -329.86852 -259.90969  21.2%     -  941s
     0     0 -259.93622    0 2240 -329.86852 -259.93622  21.2%     -  947s
     0     0 -259.94947    0 2244 -329.86852 -259.94947  21.2%     -  951s
     0     0 -259.97195    0 2165 -329.86852 -259.97195  21.2%     -  956s
     0     0 -259.97846    0 2243 -329.86852 -259.97846  21.2%     -  960s
     0     0 -259.97897    0 2243 -329.86852 -259.97897  21.2%     -  963s
     0     0 -260.81881    0 2153 -329.86852 -260.81881  20.9%     -  996s
     0     0 -261.01069    0 2230 -329.86852 -261.01069  20.9%     - 1016s
     0     0 -261.09147    0 2156 -329.86852 -261.09147  20.8%     - 1024s
     0     0 -261.12465    0 2232 -329.86852 -261.12465  20.8%     - 1030s
     0     0 -261.16452    0 2232 -329.86852 -261.16452  20.8%     - 1035s
     0     0 -261.17736    0 2238 -329.86852 -261.17736  20.8%     - 1040s
     0     0 -261.18119    0 2235 -329.86852 -261.18119  20.8%     - 1043s
     0     0 -261.18331    0 2238 -329.86852 -261.18331  20.8%     - 1046s
     0     0 -261.78126    0 2164 -329.86852 -261.78126  20.6%     - 1072s
     0     0 -262.02465    0 2172 -329.86852 -262.02465  20.6%     - 1092s
     0     0 -262.03958    0 2178 -329.86852 -262.03958  20.6%     - 1097s
     0     0 -262.05787    0 2194 -329.86852 -262.05787  20.6%     - 1102s
     0     0 -262.05787    0 2196 -329.86852 -262.05787  20.6%     - 1105s
     0     0 -262.60726    0 2174 -329.86852 -262.60726  20.4%     - 1174s
     0     0 -262.66463    0 2139 -329.86852 -262.66463  20.4%     - 1192s
     0     0 -262.67545    0 2176 -329.86852 -262.67545  20.4%     - 1198s
     0     0 -262.67788    0 2186 -329.86852 -262.67788  20.4%     - 1201s
     0     0 -263.06825    0 2135 -329.86852 -263.06825  20.3%     - 1218s
     0     0 -263.10258    0 2179 -329.86852 -263.10258  20.2%     - 1227s
     0     0 -263.11089    0 2182 -329.86852 -263.11089  20.2%     - 1233s
     0     0 -263.11723    0 2180 -329.86852 -263.11723  20.2%     - 1236s
     0     0 -263.12193    0 2183 -329.86852 -263.12193  20.2%     - 1241s
     0     0 -263.12555    0 2184 -329.86852 -263.12555  20.2%     - 1243s
     0     0 -263.12631    0 2188 -329.86852 -263.12631  20.2%     - 1247s
     0     0 -263.18130    0 2171 -329.86852 -263.18130  20.2%     - 1261s
     0     0 -263.46816    0 2182 -329.86852 -263.46816  20.1%     - 1279s
     0     0 -263.49698    0 2182 -329.86852 -263.49698  20.1%     - 1284s
     0     0 -263.52939    0 2182 -329.86852 -263.52939  20.1%     - 1289s
     0     0 -263.54623    0 2181 -329.86852 -263.54623  20.1%     - 1292s
     0     0 -263.54793    0 2175 -329.86852 -263.54793  20.1%     - 1295s
     0     0 -263.69872    0 2164 -329.86852 -263.69872  20.1%     - 1310s
     0     0 -263.78919    0 2175 -329.86852 -263.78919  20.0%     - 1316s
     0     0 -263.81645    0 2175 -329.86852 -263.81645  20.0%     - 1322s
     0     0 -263.82876    0 2177 -329.86852 -263.82876  20.0%     - 1325s
     0     0 -263.83141    0 2181 -329.86852 -263.83141  20.0%     - 1328s
     0     0 -263.83502    0 2174 -329.86852 -263.83502  20.0%     - 1332s
     0     0 -263.83672    0 2180 -329.86852 -263.83672  20.0%     - 1335s
     0     0 -263.97236    0 2175 -329.86852 -263.97236  20.0%     - 1351s
     0     0 -264.12772    0 2183 -329.86852 -264.12772  19.9%     - 1377s
     0     0 -264.18325    0 2186 -329.86852 -264.18325  19.9%     - 1383s
     0     0 -264.18554    0 2189 -329.86852 -264.18554  19.9%     - 1387s
     0     0 -264.60618    0 2188 -329.86852 -264.60618  19.8%     - 1404s
     0     0 -264.80354    0 2188 -329.86852 -264.80354  19.7%     - 1413s
     0     0 -264.83734    0 2189 -329.86852 -264.83734  19.7%     - 1418s
     0     0 -264.84006    0 2194 -329.86852 -264.84006  19.7%     - 1422s
     0     0 -264.84190    0 2196 -329.86852 -264.84190  19.7%     - 1425s
     0     0 -265.22376    0 2175 -329.86852 -265.22376  19.6%     - 1446s
     0     0 -265.25795    0 2181 -329.86852 -265.25795  19.6%     - 1452s
     0     0 -265.30422    0 2183 -329.86852 -265.30422  19.6%     - 1456s
     0     0 -265.32219    0 2178 -329.86852 -265.32219  19.6%     - 1461s
     0     0 -265.32378    0 2179 -329.86852 -265.32378  19.6%     - 1465s
     0     0 -265.82186    0 2175 -329.86852 -265.82186  19.4%     - 1483s
     0     0 -266.06333    0 2178 -329.86852 -266.06333  19.3%     - 1494s
     0     0 -266.10292    0 2190 -329.86852 -266.10292  19.3%     - 1501s
     0     0 -266.10383    0 2191 -329.86852 -266.10383  19.3%     - 1505s
     0     0 -266.45852    0 2170 -329.86852 -266.45852  19.2%     - 1543s
H    0     0                    -328.9290146 -266.45852  19.0%     - 1561s
     0     0 -266.62303    0 2172 -328.92901 -266.62303  18.9%     - 1570s
     0     0 -266.65554    0 2184 -328.92901 -266.65554  18.9%     - 1575s
     0     0 -266.65951    0 2194 -328.92901 -266.65951  18.9%     - 1578s
     0     0 -266.65951    0 2200 -328.92901 -266.65951  18.9%     - 1581s
     0     0 -266.83408    0 2186 -328.92901 -266.83408  18.9%     - 1604s
     0     0 -266.87271    0 2181 -328.92901 -266.87271  18.9%     - 1610s
     0     0 -266.87837    0 2176 -328.92901 -266.87837  18.9%     - 1614s
     0     0 -266.87837    0 2170 -328.92901 -266.87837  18.9%     - 1617s
     0     0 -266.87837    0 2188 -328.92901 -266.87837  18.9%     - 1629s
     0     0 -266.87837    0 2184 -328.92901 -266.87837  18.9%     - 1634s
     0     0 -267.00829    0 2174 -328.92901 -267.00829  18.8%     - 1649s
     0     0 -267.11393    0 2185 -328.92901 -267.11393  18.8%     - 1667s
     0     0 -267.13901    0 2188 -328.92901 -267.13901  18.8%     - 1673s
     0     0 -267.14380    0 2193 -328.92901 -267.14380  18.8%     - 1676s
     0     0 -267.14492    0 2196 -328.92901 -267.14492  18.8%     - 1679s
     0     0 -267.14492    0 2194 -328.92901 -267.14492  18.8%     - 1690s
     0     0 -267.15455    0 2195 -328.92901 -267.15455  18.8%     - 1698s
     0     0 -267.15677    0 2195 -328.92901 -267.15677  18.8%     - 1701s
     0     0 -267.35526    0 2195 -328.92901 -267.35526  18.7%     - 1715s
     0     0 -267.46493    0 2197 -328.92901 -267.46493  18.7%     - 1722s
     0     0 -267.49025    0 2199 -328.92901 -267.49025  18.7%     - 1727s
     0     0 -267.49123    0 2205 -328.92901 -267.49123  18.7%     - 1730s
     0     0 -267.59014    0 2207 -328.92901 -267.59014  18.6%     - 1749s
     0     0 -267.73263    0 2184 -328.92901 -267.73263  18.6%     - 1757s
     0     0 -267.74949    0 2185 -328.92901 -267.74949  18.6%     - 1762s
     0     0 -267.75586    0 2189 -328.92901 -267.75586  18.6%     - 1765s
     0     0 -267.75688    0 2187 -328.92901 -267.75688  18.6%     - 1767s
     0     0 -267.85743    0 2188 -328.92901 -267.85743  18.6%     - 1781s
     0     0 -267.90015    0 2196 -328.92901 -267.90015  18.6%     - 1802s
     0     0 -267.90615    0 2193 -328.92901 -267.90615  18.6%     - 1806s
     0     0 -267.90880    0 2196 -328.92901 -267.90880  18.6%     - 1809s
     0     0 -268.06505    0 2193 -328.92901 -268.06505  18.5%     - 1824s
     0     0 -268.20312    0 2190 -328.92901 -268.20312  18.5%     - 1831s
     0     0 -268.20708    0 2194 -328.92901 -268.20708  18.5%     - 1835s
     0     0 -268.21275    0 2196 -328.92901 -268.21275  18.5%     - 1839s
     0     0 -268.21430    0 2197 -328.92901 -268.21430  18.5%     - 1843s
     0     0 -268.33383    0 2183 -328.92901 -268.33383  18.4%     - 1872s
     0     0 -268.36991    0 2176 -328.92901 -268.36991  18.4%     - 1880s
     0     0 -268.37669    0 2194 -328.92901 -268.37669  18.4%     - 1884s
     0     0 -268.39600    0 2194 -328.92901 -268.39600  18.4%     - 1888s
     0     0 -268.40451    0 2195 -328.92901 -268.40451  18.4%     - 1891s
     0     0 -268.40821    0 2197 -328.92901 -268.40821  18.4%     - 1895s
     0     0 -268.40857    0 2194 -328.92901 -268.40857  18.4%     - 1897s
     0     0 -268.62967    0 2152 -328.92901 -268.62967  18.3%     - 1918s
     0     0 -268.71344    0 2160 -328.92901 -268.71344  18.3%     - 1934s
     0     0 -268.73312    0 2165 -328.92901 -268.73312  18.3%     - 1942s
     0     0 -268.75204    0 2168 -328.92901 -268.75204  18.3%     - 1947s
     0     0 -268.75237    0 2164 -328.92901 -268.75237  18.3%     - 1949s
     0     0 -268.75266    0 2167 -328.92901 -268.75266  18.3%     - 1961s
     0     0 -268.75266    0 2191 -328.92901 -268.75266  18.3%     - 1965s
     0     0 -268.84309    0 2168 -328.92901 -268.84309  18.3%     - 1981s
     0     0 -268.85015    0 2167 -328.92901 -268.85015  18.3%     - 1986s
     0     0 -268.85078    0 2168 -328.92901 -268.85078  18.3%     - 1989s
     0     0 -268.87348    0 2173 -328.92901 -268.87348  18.3%     - 2002s
     0     0 -268.87348    0 2103 -328.92901 -268.87348  18.3%     - 2145s
H    0     0                    -299.8175459 -268.87348  10.3%     - 2193s
H    0     0                    -296.0595191 -268.87348  9.18%     - 2361s
     0     2 -268.87430    0 2100 -296.05952 -268.87430  9.18%     - 2382s
     1     3 -271.10552    1 1884 -296.05952 -268.87430  9.18%  7319 2410s
     2     4 -272.82160    2 1470 -296.05952 -268.87430  9.18%  5537 2430s
     4     6 -275.06593    4 1330 -296.05952 -268.87430  9.18%  4118 2454s
     5     7 -275.18950    5 1323 -296.05952 -268.87430  9.18%  3393 2455s
     7     9 -276.56268    7 1286 -296.05952 -268.87430  9.18%  2557 2460s
     9    11 -278.80251    8 1095 -296.05952 -268.87430  9.18%  2057 2465s
    10    12 -278.46660    8 1282 -296.05952 -268.87430  9.18%  2248 2483s
    12    14 -287.25807    9 1003 -296.05952 -268.87430  9.18%  2488 2523s
    13    15 -280.91640   10 1078 -296.05952 -268.87430  9.18%  2323 2525s
    15    17 -283.85236   12 1069 -296.05952 -268.87430  9.18%  2063 2530s
    16    18 -285.84881   12  955 -296.05952 -268.87430  9.18%  1979 2536s
    17    19 -288.66096   13 1111 -296.05952 -268.87430  9.18%  1899 2540s
    18    20 -290.54635   13  964 -296.05952 -268.87430  9.18%  1899 2547s
    20    21 -295.71363   15  935 -296.05952 -268.87430  9.18%  1731 2551s
    24    23 -294.30437   16  857 -296.05952 -268.87430  9.18%  1486 2557s
H   28    19                    -295.6998297 -268.87430  9.07%  1286 2562s
    29    20 -269.12234    1 2029 -295.69983 -269.12234  8.99%  1267 2567s
    30    21 -273.74383    2 2635 -295.69983 -269.16122  8.97%  4355 3977s
    31    22 -273.79714    3 2383 -295.69983 -269.16122  8.97%  4230 3981s
    32    23 -277.71170    4 1614 -295.69983 -269.16122  8.97%  4230 4105s
    33    24 -280.11400    5 1491 -295.69983 -269.16122  8.97%  4183 4123s
    34    25 -280.30043    6 1497 -295.69983 -269.16122  8.97%  4087 4128s
    36    27 -280.75827    8 1251 -295.69983 -269.16122  8.97%  3909 4134s
    38    29 -282.23840   10 1179 -295.69983 -269.16122  8.97%  3778 4148s
    39    30 -284.68112   11 1154 -295.69983 -269.16122  8.97%  3770 4168s
    40    31 -285.15088   11 1108 -295.69983 -269.16122  8.97%  5053 5093s
    41    32 -287.65623   12 1149 -295.69983 -269.16122  8.97%  6907 6668s
    42    33 -285.62063   12 1087 -295.69983 -269.16122  8.97%  7411 7107s
    43    34 -291.63464   13 1374 -295.69983 -269.16122  8.97% 24169 35460s
    44    35 -289.84841   13 1058 -295.69983 -269.16122  8.97% 31040 43435s
    45    36 -291.72742   14 1038 -295.69983 -269.16122  8.97% 30524 43511s
    46    37 -292.66693   15 1043 -295.69983 -269.16122  8.97% 29968 43548s
    47    38 -295.01570   16 1016 -295.69983 -269.16122  8.97% 29551 43675s
    48    39 -295.01570   16 1044 -295.69983 -269.16122  8.97% 50376 77872s
    49    38     cutoff   17      -295.69983 -269.16122  8.97% 50618 79343s
    50    37     cutoff   17      -295.69983 -269.16122  8.97% 53947 86312s

Cutting planes:
  Gomory: 4
  MIR: 4
  StrongCG: 1
  Zero half: 479

Explored 51 nodes (2892654 simplex iterations) in 86400.19 seconds
Thread count was 1 (of 80 available processors)

Solution count 10: -295.7 -296.06 -299.818 ... -456.907

Time limit reached
Best objective -2.956998296587e+02, best bound -2.691612190797e+02, gap 8.9748%
